language Essence 1.3

letting blksize_delta be
        function(1 --> 10, 2 --> 10, 3 --> 10, 4 --> 10, 5 --> 10, 6 --> 10, 7 --> 10, 8 --> 10, 9 --> 10, 10 --> 10,
                 11 --> 10, 12 --> 10, 13 --> 10, 14 --> 10, 15 --> 10, 16 --> 10, 17 --> 10, 18 --> 10, 19 --> 10,
                 20 --> 10, 21 --> 10, 22 --> 10, 23 --> 10, 24 --> 10, 25 --> 10, 26 --> 10, 27 --> 10, 28 --> 10,
                 29 --> 10, 30 --> 10, 31 --> 10, 32 --> 10, 33 --> 10, 34 --> 10, 35 --> 10, 36 --> 10, 37 --> 10,
                 38 --> 10, 39 --> 10, 40 --> 10, 41 --> 10, 42 --> 10, 43 --> 10)
letting maxcars be
        function(1 --> 9, 2 --> 8, 3 --> 8, 4 --> 8, 5 --> 8, 6 --> 8, 7 --> 9, 8 --> 8, 9 --> 10, 10 --> 9, 11 --> 8,
                 12 --> 8, 13 --> 10, 14 --> 8, 15 --> 8, 16 --> 9, 17 --> 8, 18 --> 8, 19 --> 8, 20 --> 8, 21 --> 10,
                 22 --> 8, 23 --> 8, 24 --> 8, 25 --> 8, 26 --> 10, 27 --> 8, 28 --> 8, 29 --> 8, 30 --> 8, 31 --> 8,
                 32 --> 8, 33 --> 8, 34 --> 8, 35 --> 9, 36 --> 8, 37 --> 9, 38 --> 8, 39 --> 9, 40 --> 8, 41 --> 8,
                 42 --> 10, 43 --> 8)
letting n_cars be 162
letting n_classes be 18
letting n_options be 43
letting quantity be
        function(1 --> 10, 2 --> 6, 3 --> 14, 4 --> 6, 5 --> 6, 6 --> 6, 7 --> 14, 8 --> 9, 9 --> 12, 10 --> 6,
                 11 --> 6, 12 --> 13, 13 --> 6, 14 --> 6, 15 --> 6, 16 --> 12, 17 --> 12, 18 --> 12)
letting usage be
        relation((1, 5), (1, 10), (1, 14), (1, 15), (1, 16), (1, 19), (1, 20), (1, 28), (1, 30), (2, 10), (2, 12),
                 (2, 14), (2, 17), (2, 18), (2, 23), (2, 39), (3, 7), (3, 13), (3, 16), (3, 25), (3, 26), (3, 27),
                 (3, 32), (3, 39), (3, 43), (4, 3), (4, 7), (4, 9), (4, 10), (4, 17), (4, 27), (4, 31), (4, 32),
                 (4, 33), (4, 38), (5, 1), (5, 4), (5, 7), (5, 8), (5, 10), (5, 18), (5, 23), (5, 26), (5, 29), (5, 35),
                 (5, 36), (5, 38), (5, 42), (6, 2), (6, 3), (6, 9), (6, 12), (6, 13), (6, 20), (6, 24), (6, 30),
                 (6, 35), (7, 1), (7, 6), (7, 18), (7, 21), (7, 23), (7, 28), (7, 32), (7, 35), (7, 39), (7, 41),
                 (7, 42), (8, 1), (8, 2), (8, 10), (8, 15), (8, 19), (8, 27), (8, 29), (8, 33), (8, 36), (9, 4), (9, 8),
                 (9, 12), (9, 14), (9, 16), (9, 25), (9, 30), (9, 34), (9, 36), (9, 38), (10, 2), (10, 3), (10, 4),
                 (10, 14), (10, 21), (10, 22), (10, 30), (10, 34), (10, 37), (10, 42), (11, 4), (11, 8), (11, 13),
                 (11, 19), (11, 23), (11, 25), (11, 28), (11, 31), (11, 32), (11, 33), (11, 35), (11, 40), (12, 1),
                 (12, 3), (12, 6), (12, 10), (12, 15), (12, 18), (12, 19), (12, 25), (12, 27), (12, 32), (12, 33),
                 (12, 37), (13, 1), (13, 4), (13, 5), (13, 9), (13, 13), (13, 25), (13, 33), (13, 35), (13, 36),
                 (13, 38), (14, 5), (14, 9), (14, 10), (14, 12), (14, 15), (15, 11), (16, 6), (16, 14), (16, 17),
                 (16, 18), (16, 20), (16, 22), (16, 24), (16, 25), (16, 28), (16, 33), (17, 2), (17, 4), (17, 14),
                 (17, 16), (17, 19), (17, 28), (17, 30), (17, 37), (17, 38), (17, 40), (17, 41), (17, 42), (18, 7),
                 (18, 13), (18, 20), (18, 21), (18, 23), (18, 28), (18, 33), (18, 34), (18, 38), (18, 40))
$ Visualisation for usage
$  1  5
$  1 10
$  1 14
$  1 15
$  1 16
$  1 19
$  1 20
$  1 28
$  1 30
$  2 10
$  2 12
$  2 14
$  2 17
$  2 18
$  2 23
$  2 39
$  3  7
$  3 13
$  3 16
$  3 25
$  3 26
$  3 27
$  3 32
$  3 39
$  3 43
$  4  3
$  4  7
$  4  9
$  4 10
$  4 17
$  4 27
$  4 31
$  4 32
$  4 33
$  4 38
$  5  1
$  5  4
$  5  7
$  5  8
$  5 10
$  5 18
$  5 23
$  5 26
$  5 29
$  5 35
$  5 36
$  5 38
$  5 42
$  6  2
$  6  3
$  6  9
$  6 12
$  6 13
$  6 20
$  6 24
$  6 30
$  6 35
$  7  1
$  7  6
$  7 18
$  7 21
$  7 23
$  7 28
$  7 32
$  7 35
$  7 39
$  7 41
$  7 42
$  8  1
$  8  2
$  8 10
$  8 15
$  8 19
$  8 27
$  8 29
$  8 33
$  8 36
$  9  4
$  9  8
$  9 12
$  9 14
$  9 16
$  9 25
$  9 30
$  9 34
$  9 36
$  9 38
$ 10  2
$ 10  3
$ 10  4
$ 10 14
$ 10 21
$ 10 22
$ 10 30
$ 10 34
$ 10 37
$ 10 42
$ 11  4
$ 11  8
$ 11 13
$ 11 19
$ 11 23
$ 11 25
$ 11 28
$ 11 31
$ 11 32
$ 11 33
$ 11 35
$ 11 40
$ 12  1
$ 12  3
$ 12  6
$ 12 10
$ 12 15
$ 12 18
$ 12 19
$ 12 25
$ 12 27
$ 12 32
$ 12 33
$ 12 37
$ 13  1
$ 13  4
$ 13  5
$ 13  9
$ 13 13
$ 13 25
$ 13 33
$ 13 35
$ 13 36
$ 13 38
$ 14  5
$ 14  9
$ 14 10
$ 14 12
$ 14 15
$ 15 11
$ 16  6
$ 16 14
$ 16 17
$ 16 18
$ 16 20
$ 16 22
$ 16 24
$ 16 25
$ 16 28
$ 16 33
$ 17  2
$ 17  4
$ 17 14
$ 17 16
$ 17 19
$ 17 28
$ 17 30
$ 17 37
$ 17 38
$ 17 40
$ 17 41
$ 17 42
$ 18  7
$ 18 13
$ 18 20
$ 18 21
$ 18 23
$ 18 28
$ 18 33
$ 18 34
$ 18 38
$ 18 40

